(declare-const x0 Bool)
(declare-const x1 Bool)
(declare-const x2 Bool)
(declare-const x3 Bool)
(declare-const x4 Bool)
(declare-const x5 Bool)
(declare-const x6 Bool)
(declare-const x7 Bool)
(declare-const x8 Bool)
(declare-const x9 Bool)
(declare-const x10 Bool)
(declare-const x11 Bool)
(declare-const x12 Bool)
(declare-const x13 Bool)
(declare-const x14 Bool)
(declare-const x15 Bool)
(declare-const x16 Bool)
(declare-const x17 Bool)
(declare-const x18 Bool)
(declare-const x19 Bool)
(declare-const x20 Bool)
(declare-const x21 Bool)
(declare-const x22 Bool)
(declare-const x23 Bool)
(declare-const x24 Bool)
(declare-const x25 Bool)
(declare-const x26 Bool)
(declare-const x27 Bool)
(declare-const x28 Bool)
(declare-const x29 Bool)
(declare-const x30 Bool)
(declare-const x31 Bool)
(declare-const x32 Bool)
(declare-const x33 Bool)
(declare-const x34 Bool)
(declare-const x35 Bool)
(assert (= (or (or (= true x13) true) (= false false)) (and (= x32 true) (= x33 x2))))
(assert (or (and x12 x27) (and (= x34 x33) (or (= false x0) false))))
(assert (or (or false x13) (= (= (or true x22) false) (= true x30))))
(assert (and false (and false false)))
(assert (or (or x32 (or (= true false) (and (and x25 x28) (and (and x33 x18) (= true x32))))) (and (= true true) x5)))
(assert (and true true))
(assert (= (or false x2) (= x33 x16)))
(assert (and (= (and true (or true true)) (or (or false false) (and x5 x16))) (= (= (= x29 false) (= false x4)) x12)))
(assert (and (and (and true x25) (and x5 x1)) (= false x26)))
(assert (or (= (or (= (= true x19) true) (or false true)) (and (and false false) (= true x12))) (= x27 (and x15 x4))))
(check-sat)
